computational_data/solutions/ER_n40_p020_s9.sol
Optimal - objective value 11.00000000
      7 r_7                         1                       1
     18 r_18                        1                       1
     21 r_21                        1                       1
     31 r_31                        1                       1
     34 r_34                        1                       1
     36 r_36                        1                       1
     50 b_10                        1                       1
     62 b_22                        1                       1
     68 b_28                        1                       1
     70 b_30                        1                       1
     73 b_33                        1                       1
