computational_data/logs/ER_n40_p020_s9.log
Welcome to the CBC MILP Solver 
Version: 2.10.12 
Build Date: Aug 20 2024 

command line - /opt/homebrew/bin/cbc computational_data/lp/ER_n40_p020_s9.lp seconds 10.0 solve solu computational_data/solutions/ER_n40_p020_s9.sol (default strategy 1)
seconds was changed from 1e+100 to 10
Continuous objective value is 8.26218 - 0.00 seconds
Cgl0003I 0 fixed, 0 tightened bounds, 179 strengthened rows, 0 substitutions
Cgl0003I 0 fixed, 0 tightened bounds, 148 strengthened rows, 0 substitutions
Cgl0003I 0 fixed, 0 tightened bounds, 53 strengthened rows, 0 substitutions
Cgl0003I 0 fixed, 0 tightened bounds, 16 strengthened rows, 0 substitutions
Cgl0003I 0 fixed, 0 tightened bounds, 7 strengthened rows, 0 substitutions
Cgl0004I processed model has 339 rows, 80 columns (80 integer (80 of which binary)) and 1693 elements
Cutoff increment increased from 1e-05 to 0.9999
Cbc0038I Initial state - 44 integers unsatisfied sum - 8.26218
Cbc0038I Pass   1: suminf.    8.22339 (44) obj. 8.26394 iterations 2
Cbc0038I Pass   2: suminf.    7.90866 (46) obj. 8.46421 iterations 31
Cbc0038I Pass   3: suminf.   12.50000 (25) obj. 12.5 iterations 76
Cbc0038I Pass   4: suminf.    6.83333 (35) obj. 13.3333 iterations 51
Cbc0038I Pass   5: suminf.    0.00000 (0) obj. 17 iterations 65
Cbc0038I Solution found of 17
Cbc0038I Before mini branch and bound, 20 integers at bound fixed and 0 continuous
Cbc0038I Full problem 339 rows 80 columns, reduced to 284 rows 60 columns - 8 fixed gives 39, 14 - ok now
Cbc0038I Full problem 339 rows 80 columns, reduced to 32 rows 12 columns
Cbc0038I Mini branch and bound improved solution from 17 to 16 (0.02 seconds)
Cbc0038I Round again with cutoff of 14.3263
Cbc0038I Pass   6: suminf.    8.22339 (44) obj. 8.26394 iterations 0
Cbc0038I Pass   7: suminf.    7.90866 (46) obj. 8.46421 iterations 28
Cbc0038I Pass   8: suminf.    6.00000 (22) obj. 11.5 iterations 82
Cbc0038I Pass   9: suminf.    0.00000 (0) obj. 13 iterations 64
Cbc0038I Solution found of 13
Cbc0038I Before mini branch and bound, 23 integers at bound fixed and 0 continuous
Cbc0038I Full problem 339 rows 80 columns, reduced to 274 rows 57 columns - 2 fixed gives 189, 45 - still too large
Cbc0038I Full problem 339 rows 80 columns, reduced to 189 rows 45 columns - too large
Cbc0038I Mini branch and bound did not improve solution (0.03 seconds)
Cbc0038I Round again with cutoff of 11.2525
Cbc0038I Pass  10: suminf.    8.22339 (44) obj. 8.26394 iterations 0
Cbc0038I Pass  11: suminf.    7.90866 (46) obj. 8.46421 iterations 28
Cbc0038I Pass  12: suminf.    7.05776 (28) obj. 11.2525 iterations 82
Cbc0038I Pass  13: suminf.    5.14130 (28) obj. 11.2525 iterations 50
Cbc0038I Pass  14: suminf.    3.43330 (33) obj. 11.2525 iterations 47
Cbc0038I Pass  15: suminf.    2.92937 (39) obj. 11.2525 iterations 17
Cbc0038I Pass  16: suminf.    2.70288 (37) obj. 11.2525 iterations 26
Cbc0038I Pass  17: suminf.    7.58150 (36) obj. 8.671 iterations 55
Cbc0038I Pass  18: suminf.    7.27020 (37) obj. 9.07344 iterations 22
Cbc0038I Pass  19: suminf.    6.53506 (32) obj. 9.41818 iterations 54
Cbc0038I Pass  20: suminf.    5.61148 (31) obj. 9.92053 iterations 33
Cbc0038I Pass  21: suminf.    4.37805 (24) obj. 10.5976 iterations 38
Cbc0038I Pass  22: suminf.    3.86667 (19) obj. 10.6667 iterations 54
Cbc0038I Pass  23: suminf.    6.50000 (31) obj. 11.2525 iterations 74
Cbc0038I Pass  24: suminf.    4.82959 (31) obj. 11.2525 iterations 43
Cbc0038I Pass  25: suminf.    6.09712 (27) obj. 11.2525 iterations 50
Cbc0038I Pass  26: suminf.    4.56674 (22) obj. 11.2525 iterations 41
Cbc0038I Pass  27: suminf.    4.22117 (19) obj. 11.2525 iterations 41
Cbc0038I Pass  28: suminf.    6.39739 (26) obj. 11.2525 iterations 89
Cbc0038I Pass  29: suminf.    5.16777 (26) obj. 11.2525 iterations 41
Cbc0038I Pass  30: suminf.    6.45891 (29) obj. 11.2525 iterations 56
Cbc0038I Pass  31: suminf.    3.86937 (26) obj. 11.2525 iterations 52
Cbc0038I Pass  32: suminf.    3.79047 (25) obj. 11.2525 iterations 9
Cbc0038I Pass  33: suminf.    5.05413 (26) obj. 11.2525 iterations 68
Cbc0038I Pass  34: suminf.    3.86667 (19) obj. 10.6667 iterations 44
Cbc0038I Pass  35: suminf.    6.52166 (28) obj. 11.2525 iterations 47
Cbc0038I Pass  36: suminf.    5.09643 (32) obj. 11.2525 iterations 39
Cbc0038I Pass  37: suminf.    4.85252 (19) obj. 11.2525 iterations 72
Cbc0038I Pass  38: suminf.    3.74748 (22) obj. 11.2525 iterations 92
Cbc0038I Pass  39: suminf.    3.46915 (20) obj. 11.2525 iterations 24
Cbc0038I No solution found this major pass
Cbc0038I Before mini branch and bound, 3 integers at bound fixed and 0 continuous
Cbc0038I Full problem 339 rows 80 columns, reduced to 335 rows 77 columns - 2 fixed gives 245, 59 - still too large
Cbc0038I Full problem 339 rows 80 columns, reduced to 245 rows 59 columns - too large
Cbc0038I Mini branch and bound did not improve solution (0.06 seconds)
Cbc0038I After 0.06 seconds - Feasibility pump exiting with objective of 13 - took 0.05 seconds
Cbc0012I Integer solution of 13 found by feasibility pump after 0 iterations and 0 nodes (0.06 seconds)
Cbc0038I Full problem 339 rows 80 columns, reduced to 237 rows 47 columns - 2 fixed gives 157, 36 - ok now
Cbc0038I Full problem 339 rows 80 columns, reduced to 82 rows 20 columns
Cbc0031I 12 added rows had average density of 47.416667
Cbc0013I At root node, 12 cuts changed objective from 8.2621849 to 8.5547828 in 100 passes
Cbc0014I Cut generator 0 (Probing) - 1 row cuts average 7.0 elements, 0 column cuts (0 active)  in 0.041 seconds - new frequency is -100
Cbc0014I Cut generator 1 (Gomory) - 1330 row cuts average 80.0 elements, 0 column cuts (0 active)  in 0.046 seconds - new frequency is -100
Cbc0014I Cut generator 2 (Knapsack) - 0 row cuts average 0.0 elements, 0 column cuts (0 active)  in 0.006 seconds - new frequency is -100
Cbc0014I Cut generator 3 (Clique) - 0 row cuts average 0.0 elements, 0 column cuts (0 active)  in 0.010 seconds - new frequency is -100
Cbc0014I Cut generator 4 (MixedIntegerRounding2) - 0 row cuts average 0.0 elements, 0 column cuts (0 active)  in 0.028 seconds - new frequency is -100
Cbc0014I Cut generator 5 (FlowCover) - 0 row cuts average 0.0 elements, 0 column cuts (0 active)  in 0.001 seconds - new frequency is -100
Cbc0014I Cut generator 7 (ZeroHalf) - 82 row cuts average 13.2 elements, 0 column cuts (0 active)  in 0.174 seconds - new frequency is -100
Cbc0010I After 0 nodes, 1 on tree, 13 best solution, best possible 8.5547828 (0.61 seconds)
Cbc0012I Integer solution of 12 found by DiveCoefficient after 4464 iterations and 5 nodes (0.76 seconds)
Cbc0038I Full problem 339 rows 80 columns, reduced to 182 rows 43 columns - 2 fixed gives 121, 32 - ok now
Cbc0038I Full problem 339 rows 80 columns, reduced to 79 rows 23 columns
Cbc0016I Integer solution of 11 found by strong branching after 9099 iterations and 119 nodes (1.27 seconds)
Cbc0001I Search completed - best objective 11, took 12613 iterations and 190 nodes (1.67 seconds)
Cbc0032I Strong branching done 2888 times (66228 iterations), fathomed 32 nodes and fixed 27 variables
Cbc0035I Maximum depth 17, 442 variables fixed on reduced cost
Cuts at root node changed objective from 8.26218 to 8.55478
Probing was tried 100 times and created 1 cuts of which 0 were active after adding rounds of cuts (0.041 seconds)
Gomory was tried 100 times and created 1330 cuts of which 0 were active after adding rounds of cuts (0.046 seconds)
Knapsack was tried 100 times and created 0 cuts of which 0 were active after adding rounds of cuts (0.006 seconds)
Clique was tried 100 times and created 0 cuts of which 0 were active after adding rounds of cuts (0.010 seconds)
MixedIntegerRounding2 was tried 100 times and created 0 cuts of which 0 were active after adding rounds of cuts (0.028 seconds)
FlowCover was tried 100 times and created 0 cuts of which 0 were active after adding rounds of cuts (0.001 seconds)
TwoMirCuts was tried 1 times and created 0 cuts of which 0 were active after adding rounds of cuts (0.001 seconds)
ZeroHalf was tried 100 times and created 82 cuts of which 0 were active after adding rounds of cuts (0.174 seconds)

Result - Optimal solution found

Objective value:                11.00000000
Enumerated nodes:               190
Total iterations:               12613
Time (CPU seconds):             1.67
Time (Wallclock seconds):       1.74

Total time (CPU seconds):       1.67   (Wallclock seconds):       1.74

